keccak_milp_n_0_l_0.lp
Minimize
A_0_0_0 + A_0_0_1 + A_0_1_0 + A_0_1_1 + A_0_2_0 + A_0_2_1 + A_0_3_0 + A_0_3_1 + A_0_4_0 + A_0_4_1 

Subject To

x_0_0_0_0 + x_0_0_1_0 + x_0_0_2_0 + x_0_0_3_0 + x_0_0_4_0 + p_0_0_0 - 2d_0_0_0 >= 0
- x_0_0_0_0 - x_0_0_1_0 - x_0_0_2_0 - x_0_0_3_0 - x_0_0_4_0 - p_0_0_0 + 2d_0_0_0 >= 0

x_0_0_0_1 + x_0_0_1_1 + x_0_0_2_1 + x_0_0_3_1 + x_0_0_4_1 + p_0_0_1 - 2d_0_0_1 >= 0
- x_0_0_0_1 - x_0_0_1_1 - x_0_0_2_1 - x_0_0_3_1 - x_0_0_4_1 - p_0_0_1 + 2d_0_0_1 >= 0

x_0_1_0_0 + x_0_1_1_0 + x_0_1_2_0 + x_0_1_3_0 + x_0_1_4_0 + p_0_1_0 - 2d_0_1_0 >= 0
- x_0_1_0_0 - x_0_1_1_0 - x_0_1_2_0 - x_0_1_3_0 - x_0_1_4_0 - p_0_1_0 + 2d_0_1_0 >= 0

x_0_1_0_1 + x_0_1_1_1 + x_0_1_2_1 + x_0_1_3_1 + x_0_1_4_1 + p_0_1_1 - 2d_0_1_1 >= 0
- x_0_1_0_1 - x_0_1_1_1 - x_0_1_2_1 - x_0_1_3_1 - x_0_1_4_1 - p_0_1_1 + 2d_0_1_1 >= 0

x_0_2_0_0 + x_0_2_1_0 + x_0_2_2_0 + x_0_2_3_0 + x_0_2_4_0 + p_0_2_0 - 2d_0_2_0 >= 0
- x_0_2_0_0 - x_0_2_1_0 - x_0_2_2_0 - x_0_2_3_0 - x_0_2_4_0 - p_0_2_0 + 2d_0_2_0 >= 0

x_0_2_0_1 + x_0_2_1_1 + x_0_2_2_1 + x_0_2_3_1 + x_0_2_4_1 + p_0_2_1 - 2d_0_2_1 >= 0
- x_0_2_0_1 - x_0_2_1_1 - x_0_2_2_1 - x_0_2_3_1 - x_0_2_4_1 - p_0_2_1 + 2d_0_2_1 >= 0

x_0_3_0_0 + x_0_3_1_0 + x_0_3_2_0 + x_0_3_3_0 + x_0_3_4_0 + p_0_3_0 - 2d_0_3_0 >= 0
- x_0_3_0_0 - x_0_3_1_0 - x_0_3_2_0 - x_0_3_3_0 - x_0_3_4_0 - p_0_3_0 + 2d_0_3_0 >= 0

x_0_3_0_1 + x_0_3_1_1 + x_0_3_2_1 + x_0_3_3_1 + x_0_3_4_1 + p_0_3_1 - 2d_0_3_1 >= 0
- x_0_3_0_1 - x_0_3_1_1 - x_0_3_2_1 - x_0_3_3_1 - x_0_3_4_1 - p_0_3_1 + 2d_0_3_1 >= 0

x_0_4_0_0 + x_0_4_1_0 + x_0_4_2_0 + x_0_4_3_0 + x_0_4_4_0 + p_0_4_0 - 2d_0_4_0 >= 0
- x_0_4_0_0 - x_0_4_1_0 - x_0_4_2_0 - x_0_4_3_0 - x_0_4_4_0 - p_0_4_0 + 2d_0_4_0 >= 0

x_0_4_0_1 + x_0_4_1_1 + x_0_4_2_1 + x_0_4_3_1 + x_0_4_4_1 + p_0_4_1 - 2d_0_4_1 >= 0
- x_0_4_0_1 - x_0_4_1_1 - x_0_4_2_1 - x_0_4_3_1 - x_0_4_4_1 - p_0_4_1 + 2d_0_4_1 >= 0


x_0_0_0_0 + x_0_0_1_0 + x_0_0_2_0 + x_0_0_3_0 + x_0_0_4_0 + x_0_0_0_1 + x_0_0_1_1 + x_0_0_2_1 + x_0_0_3_1 + x_0_0_4_1 + x_0_1_0_0 + x_0_1_1_0 + x_0_1_2_0 + x_0_1_3_0 + x_0_1_4_0 + x_0_1_0_1 + x_0_1_1_1 + x_0_1_2_1 + x_0_1_3_1 + x_0_1_4_1 + x_0_2_0_0 + x_0_2_1_0 + x_0_2_2_0 + x_0_2_3_0 + x_0_2_4_0 + x_0_2_0_1 + x_0_2_1_1 + x_0_2_2_1 + x_0_2_3_1 + x_0_2_4_1 + x_0_3_0_0 + x_0_3_1_0 + x_0_3_2_0 + x_0_3_3_0 + x_0_3_4_0 + x_0_3_0_1 + x_0_3_1_1 + x_0_3_2_1 + x_0_3_3_1 + x_0_3_4_1 + x_0_4_0_0 + x_0_4_1_0 + x_0_4_2_0 + x_0_4_3_0 + x_0_4_4_0 + x_0_4_0_1 + x_0_4_1_1 + x_0_4_2_1 + x_0_4_3_1 + x_0_4_4_1 >= 1 
d_0_0_0 - x_0_0_0_0 >= 0 
d_0_0_0 - x_0_0_1_0 >= 0 
d_0_0_0 - x_0_0_2_0 >= 0 
d_0_0_0 - x_0_0_3_0 >= 0 
d_0_0_0 - x_0_0_4_0 >= 0 
d_0_0_0 - p_0_0_0 >= 0 
d_0_0_1 - x_0_0_0_1 >= 0 
d_0_0_1 - x_0_0_1_1 >= 0 
d_0_0_1 - x_0_0_2_1 >= 0 
d_0_0_1 - x_0_0_3_1 >= 0 
d_0_0_1 - x_0_0_4_1 >= 0 
d_0_0_1 - p_0_0_1 >= 0 
d_0_1_0 - x_0_1_0_0 >= 0 
d_0_1_0 - x_0_1_1_0 >= 0 
d_0_1_0 - x_0_1_2_0 >= 0 
d_0_1_0 - x_0_1_3_0 >= 0 
d_0_1_0 - x_0_1_4_0 >= 0 
d_0_1_0 - p_0_1_0 >= 0 
d_0_1_1 - x_0_1_0_1 >= 0 
d_0_1_1 - x_0_1_1_1 >= 0 
d_0_1_1 - x_0_1_2_1 >= 0 
d_0_1_1 - x_0_1_3_1 >= 0 
d_0_1_1 - x_0_1_4_1 >= 0 
d_0_1_1 - p_0_1_1 >= 0 
d_0_2_0 - x_0_2_0_0 >= 0 
d_0_2_0 - x_0_2_1_0 >= 0 
d_0_2_0 - x_0_2_2_0 >= 0 
d_0_2_0 - x_0_2_3_0 >= 0 
d_0_2_0 - x_0_2_4_0 >= 0 
d_0_2_0 - p_0_2_0 >= 0 
d_0_2_1 - x_0_2_0_1 >= 0 
d_0_2_1 - x_0_2_1_1 >= 0 
d_0_2_1 - x_0_2_2_1 >= 0 
d_0_2_1 - x_0_2_3_1 >= 0 
d_0_2_1 - x_0_2_4_1 >= 0 
d_0_2_1 - p_0_2_1 >= 0 
d_0_3_0 - x_0_3_0_0 >= 0 
d_0_3_0 - x_0_3_1_0 >= 0 
d_0_3_0 - x_0_3_2_0 >= 0 
d_0_3_0 - x_0_3_3_0 >= 0 
d_0_3_0 - x_0_3_4_0 >= 0 
d_0_3_0 - p_0_3_0 >= 0 
d_0_3_1 - x_0_3_0_1 >= 0 
d_0_3_1 - x_0_3_1_1 >= 0 
d_0_3_1 - x_0_3_2_1 >= 0 
d_0_3_1 - x_0_3_3_1 >= 0 
d_0_3_1 - x_0_3_4_1 >= 0 
d_0_3_1 - p_0_3_1 >= 0 
d_0_4_0 - x_0_4_0_0 >= 0 
d_0_4_0 - x_0_4_1_0 >= 0 
d_0_4_0 - x_0_4_2_0 >= 0 
d_0_4_0 - x_0_4_3_0 >= 0 
d_0_4_0 - x_0_4_4_0 >= 0 
d_0_4_0 - p_0_4_0 >= 0 
d_0_4_1 - x_0_4_0_1 >= 0 
d_0_4_1 - x_0_4_1_1 >= 0 
d_0_4_1 - x_0_4_2_1 >= 0 
d_0_4_1 - x_0_4_3_1 >= 0 
d_0_4_1 - x_0_4_4_1 >= 0 
d_0_4_1 - p_0_4_1 >= 0 

x_0_0_0_0 + p_0_4_0 + p_0_1_0 + y_0_0_0_0 - 2e_0_0_0_0 >= 0 
2e_0_0_0_0 - x_0_4_0_0 - p_1_0_0 - p_0_0_0 - y_0_0_0_0 >= 0 

e_0_0_0_0 - x_0_0_0_0 >= 0 
e_0_0_0_0 - p_0_4_0 >= 0 
e_0_0_0_0 - p_0_1_4 >= 0 
e_0_0_0_0 - y_0_0_0_0 >= 0 

x_0_0_1_0 + p_0_4_0 + p_0_1_0 + y_0_0_1_0 - 2e_0_0_1_0 >= 0 
2e_0_0_1_0 - x_0_4_0_0 - p_1_0_0 - p_0_1_0 - y_0_0_1_0 >= 0 

e_0_0_1_0 - x_0_0_1_0 >= 0 
e_0_0_1_0 - p_0_4_0 >= 0 
e_0_0_1_0 - p_0_1_4 >= 0 
e_0_0_1_0 - y_0_0_1_0 >= 0 

x_0_0_2_0 + p_0_4_0 + p_0_1_0 + y_0_0_2_0 - 2e_0_0_2_0 >= 0 
2e_0_0_2_0 - x_0_4_0_0 - p_1_0_0 - p_0_2_0 - y_0_0_2_0 >= 0 

e_0_0_2_0 - x_0_0_2_0 >= 0 
e_0_0_2_0 - p_0_4_0 >= 0 
e_0_0_2_0 - p_0_1_4 >= 0 
e_0_0_2_0 - y_0_0_2_0 >= 0 

x_0_0_3_0 + p_0_4_0 + p_0_1_0 + y_0_0_3_0 - 2e_0_0_3_0 >= 0 
2e_0_0_3_0 - x_0_4_0_0 - p_1_0_0 - p_0_3_0 - y_0_0_3_0 >= 0 

e_0_0_3_0 - x_0_0_3_0 >= 0 
e_0_0_3_0 - p_0_4_0 >= 0 
e_0_0_3_0 - p_0_1_4 >= 0 
e_0_0_3_0 - y_0_0_3_0 >= 0 

x_0_0_4_0 + p_0_4_0 + p_0_1_0 + y_0_0_4_0 - 2e_0_0_4_0 >= 0 
2e_0_0_4_0 - x_0_4_0_0 - p_1_0_0 - p_0_4_0 - y_0_0_4_0 >= 0 

e_0_0_4_0 - x_0_0_4_0 >= 0 
e_0_0_4_0 - p_0_4_0 >= 0 
e_0_0_4_0 - p_0_1_4 >= 0 
e_0_0_4_0 - y_0_0_4_0 >= 0 

x_0_0_0_1 + p_0_4_1 + p_0_1_1 + y_0_0_0_1 - 2e_0_0_0_1 >= 0 
2e_0_0_0_1 - x_0_4_1_0 - p_1_1_0 - p_0_0_1 - y_0_0_0_1 >= 0 

e_0_0_0_1 - x_0_0_0_1 >= 0 
e_0_0_0_1 - p_0_4_1 >= 0 
e_0_0_0_1 - p_0_1_0 >= 0 
e_0_0_0_1 - y_0_0_0_1 >= 0 

x_0_0_1_1 + p_0_4_1 + p_0_1_1 + y_0_0_1_1 - 2e_0_0_1_1 >= 0 
2e_0_0_1_1 - x_0_4_1_0 - p_1_1_0 - p_0_1_1 - y_0_0_1_1 >= 0 

e_0_0_1_1 - x_0_0_1_1 >= 0 
e_0_0_1_1 - p_0_4_1 >= 0 
e_0_0_1_1 - p_0_1_0 >= 0 
e_0_0_1_1 - y_0_0_1_1 >= 0 

x_0_0_2_1 + p_0_4_1 + p_0_1_1 + y_0_0_2_1 - 2e_0_0_2_1 >= 0 
2e_0_0_2_1 - x_0_4_1_0 - p_1_1_0 - p_0_2_1 - y_0_0_2_1 >= 0 

e_0_0_2_1 - x_0_0_2_1 >= 0 
e_0_0_2_1 - p_0_4_1 >= 0 
e_0_0_2_1 - p_0_1_0 >= 0 
e_0_0_2_1 - y_0_0_2_1 >= 0 

x_0_0_3_1 + p_0_4_1 + p_0_1_1 + y_0_0_3_1 - 2e_0_0_3_1 >= 0 
2e_0_0_3_1 - x_0_4_1_0 - p_1_1_0 - p_0_3_1 - y_0_0_3_1 >= 0 

e_0_0_3_1 - x_0_0_3_1 >= 0 
e_0_0_3_1 - p_0_4_1 >= 0 
e_0_0_3_1 - p_0_1_0 >= 0 
e_0_0_3_1 - y_0_0_3_1 >= 0 

x_0_0_4_1 + p_0_4_1 + p_0_1_1 + y_0_0_4_1 - 2e_0_0_4_1 >= 0 
2e_0_0_4_1 - x_0_4_1_0 - p_1_1_0 - p_0_4_1 - y_0_0_4_1 >= 0 

e_0_0_4_1 - x_0_0_4_1 >= 0 
e_0_0_4_1 - p_0_4_1 >= 0 
e_0_0_4_1 - p_0_1_0 >= 0 
e_0_0_4_1 - y_0_0_4_1 >= 0 

x_0_1_0_0 + p_0_0_0 + p_0_2_0 + y_0_1_0_0 - 2e_0_1_0_0 >= 0 
2e_0_1_0_0 - x_0_0_0_0 - p_2_0_0 - p_1_0_0 - y_0_1_0_0 >= 0 

e_0_1_0_0 - x_0_1_0_0 >= 0 
e_0_1_0_0 - p_0_0_0 >= 0 
e_0_1_0_0 - p_0_2_4 >= 0 
e_0_1_0_0 - y_0_1_0_0 >= 0 

x_0_1_1_0 + p_0_0_0 + p_0_2_0 + y_0_1_1_0 - 2e_0_1_1_0 >= 0 
2e_0_1_1_0 - x_0_0_0_0 - p_2_0_0 - p_1_1_0 - y_0_1_1_0 >= 0 

e_0_1_1_0 - x_0_1_1_0 >= 0 
e_0_1_1_0 - p_0_0_0 >= 0 
e_0_1_1_0 - p_0_2_4 >= 0 
e_0_1_1_0 - y_0_1_1_0 >= 0 

x_0_1_2_0 + p_0_0_0 + p_0_2_0 + y_0_1_2_0 - 2e_0_1_2_0 >= 0 
2e_0_1_2_0 - x_0_0_0_0 - p_2_0_0 - p_1_2_0 - y_0_1_2_0 >= 0 

e_0_1_2_0 - x_0_1_2_0 >= 0 
e_0_1_2_0 - p_0_0_0 >= 0 
e_0_1_2_0 - p_0_2_4 >= 0 
e_0_1_2_0 - y_0_1_2_0 >= 0 

x_0_1_3_0 + p_0_0_0 + p_0_2_0 + y_0_1_3_0 - 2e_0_1_3_0 >= 0 
2e_0_1_3_0 - x_0_0_0_0 - p_2_0_0 - p_1_3_0 - y_0_1_3_0 >= 0 

e_0_1_3_0 - x_0_1_3_0 >= 0 
e_0_1_3_0 - p_0_0_0 >= 0 
e_0_1_3_0 - p_0_2_4 >= 0 
e_0_1_3_0 - y_0_1_3_0 >= 0 

x_0_1_4_0 + p_0_0_0 + p_0_2_0 + y_0_1_4_0 - 2e_0_1_4_0 >= 0 
2e_0_1_4_0 - x_0_0_0_0 - p_2_0_0 - p_1_4_0 - y_0_1_4_0 >= 0 

e_0_1_4_0 - x_0_1_4_0 >= 0 
e_0_1_4_0 - p_0_0_0 >= 0 
e_0_1_4_0 - p_0_2_4 >= 0 
e_0_1_4_0 - y_0_1_4_0 >= 0 

x_0_1_0_1 + p_0_0_1 + p_0_2_1 + y_0_1_0_1 - 2e_0_1_0_1 >= 0 
2e_0_1_0_1 - x_0_0_1_0 - p_2_1_0 - p_1_0_1 - y_0_1_0_1 >= 0 

e_0_1_0_1 - x_0_1_0_1 >= 0 
e_0_1_0_1 - p_0_0_1 >= 0 
e_0_1_0_1 - p_0_2_0 >= 0 
e_0_1_0_1 - y_0_1_0_1 >= 0 

x_0_1_1_1 + p_0_0_1 + p_0_2_1 + y_0_1_1_1 - 2e_0_1_1_1 >= 0 
2e_0_1_1_1 - x_0_0_1_0 - p_2_1_0 - p_1_1_1 - y_0_1_1_1 >= 0 

e_0_1_1_1 - x_0_1_1_1 >= 0 
e_0_1_1_1 - p_0_0_1 >= 0 
e_0_1_1_1 - p_0_2_0 >= 0 
e_0_1_1_1 - y_0_1_1_1 >= 0 

x_0_1_2_1 + p_0_0_1 + p_0_2_1 + y_0_1_2_1 - 2e_0_1_2_1 >= 0 
2e_0_1_2_1 - x_0_0_1_0 - p_2_1_0 - p_1_2_1 - y_0_1_2_1 >= 0 

e_0_1_2_1 - x_0_1_2_1 >= 0 
e_0_1_2_1 - p_0_0_1 >= 0 
e_0_1_2_1 - p_0_2_0 >= 0 
e_0_1_2_1 - y_0_1_2_1 >= 0 

x_0_1_3_1 + p_0_0_1 + p_0_2_1 + y_0_1_3_1 - 2e_0_1_3_1 >= 0 
2e_0_1_3_1 - x_0_0_1_0 - p_2_1_0 - p_1_3_1 - y_0_1_3_1 >= 0 

e_0_1_3_1 - x_0_1_3_1 >= 0 
e_0_1_3_1 - p_0_0_1 >= 0 
e_0_1_3_1 - p_0_2_0 >= 0 
e_0_1_3_1 - y_0_1_3_1 >= 0 

x_0_1_4_1 + p_0_0_1 + p_0_2_1 + y_0_1_4_1 - 2e_0_1_4_1 >= 0 
2e_0_1_4_1 - x_0_0_1_0 - p_2_1_0 - p_1_4_1 - y_0_1_4_1 >= 0 

e_0_1_4_1 - x_0_1_4_1 >= 0 
e_0_1_4_1 - p_0_0_1 >= 0 
e_0_1_4_1 - p_0_2_0 >= 0 
e_0_1_4_1 - y_0_1_4_1 >= 0 

x_0_2_0_0 + p_0_1_0 + p_0_3_0 + y_0_2_0_0 - 2e_0_2_0_0 >= 0 
2e_0_2_0_0 - x_0_1_0_0 - p_3_0_0 - p_2_0_0 - y_0_2_0_0 >= 0 

e_0_2_0_0 - x_0_2_0_0 >= 0 
e_0_2_0_0 - p_0_1_0 >= 0 
e_0_2_0_0 - p_0_3_4 >= 0 
e_0_2_0_0 - y_0_2_0_0 >= 0 

x_0_2_1_0 + p_0_1_0 + p_0_3_0 + y_0_2_1_0 - 2e_0_2_1_0 >= 0 
2e_0_2_1_0 - x_0_1_0_0 - p_3_0_0 - p_2_1_0 - y_0_2_1_0 >= 0 

e_0_2_1_0 - x_0_2_1_0 >= 0 
e_0_2_1_0 - p_0_1_0 >= 0 
e_0_2_1_0 - p_0_3_4 >= 0 
e_0_2_1_0 - y_0_2_1_0 >= 0 

x_0_2_2_0 + p_0_1_0 + p_0_3_0 + y_0_2_2_0 - 2e_0_2_2_0 >= 0 
2e_0_2_2_0 - x_0_1_0_0 - p_3_0_0 - p_2_2_0 - y_0_2_2_0 >= 0 

e_0_2_2_0 - x_0_2_2_0 >= 0 
e_0_2_2_0 - p_0_1_0 >= 0 
e_0_2_2_0 - p_0_3_4 >= 0 
e_0_2_2_0 - y_0_2_2_0 >= 0 

x_0_2_3_0 + p_0_1_0 + p_0_3_0 + y_0_2_3_0 - 2e_0_2_3_0 >= 0 
2e_0_2_3_0 - x_0_1_0_0 - p_3_0_0 - p_2_3_0 - y_0_2_3_0 >= 0 

e_0_2_3_0 - x_0_2_3_0 >= 0 
e_0_2_3_0 - p_0_1_0 >= 0 
e_0_2_3_0 - p_0_3_4 >= 0 
e_0_2_3_0 - y_0_2_3_0 >= 0 

x_0_2_4_0 + p_0_1_0 + p_0_3_0 + y_0_2_4_0 - 2e_0_2_4_0 >= 0 
2e_0_2_4_0 - x_0_1_0_0 - p_3_0_0 - p_2_4_0 - y_0_2_4_0 >= 0 

e_0_2_4_0 - x_0_2_4_0 >= 0 
e_0_2_4_0 - p_0_1_0 >= 0 
e_0_2_4_0 - p_0_3_4 >= 0 
e_0_2_4_0 - y_0_2_4_0 >= 0 

x_0_2_0_1 + p_0_1_1 + p_0_3_1 + y_0_2_0_1 - 2e_0_2_0_1 >= 0 
2e_0_2_0_1 - x_0_1_1_0 - p_3_1_0 - p_2_0_1 - y_0_2_0_1 >= 0 

e_0_2_0_1 - x_0_2_0_1 >= 0 
e_0_2_0_1 - p_0_1_1 >= 0 
e_0_2_0_1 - p_0_3_0 >= 0 
e_0_2_0_1 - y_0_2_0_1 >= 0 

x_0_2_1_1 + p_0_1_1 + p_0_3_1 + y_0_2_1_1 - 2e_0_2_1_1 >= 0 
2e_0_2_1_1 - x_0_1_1_0 - p_3_1_0 - p_2_1_1 - y_0_2_1_1 >= 0 

e_0_2_1_1 - x_0_2_1_1 >= 0 
e_0_2_1_1 - p_0_1_1 >= 0 
e_0_2_1_1 - p_0_3_0 >= 0 
e_0_2_1_1 - y_0_2_1_1 >= 0 

x_0_2_2_1 + p_0_1_1 + p_0_3_1 + y_0_2_2_1 - 2e_0_2_2_1 >= 0 
2e_0_2_2_1 - x_0_1_1_0 - p_3_1_0 - p_2_2_1 - y_0_2_2_1 >= 0 

e_0_2_2_1 - x_0_2_2_1 >= 0 
e_0_2_2_1 - p_0_1_1 >= 0 
e_0_2_2_1 - p_0_3_0 >= 0 
e_0_2_2_1 - y_0_2_2_1 >= 0 

x_0_2_3_1 + p_0_1_1 + p_0_3_1 + y_0_2_3_1 - 2e_0_2_3_1 >= 0 
2e_0_2_3_1 - x_0_1_1_0 - p_3_1_0 - p_2_3_1 - y_0_2_3_1 >= 0 

e_0_2_3_1 - x_0_2_3_1 >= 0 
e_0_2_3_1 - p_0_1_1 >= 0 
e_0_2_3_1 - p_0_3_0 >= 0 
e_0_2_3_1 - y_0_2_3_1 >= 0 

x_0_2_4_1 + p_0_1_1 + p_0_3_1 + y_0_2_4_1 - 2e_0_2_4_1 >= 0 
2e_0_2_4_1 - x_0_1_1_0 - p_3_1_0 - p_2_4_1 - y_0_2_4_1 >= 0 

e_0_2_4_1 - x_0_2_4_1 >= 0 
e_0_2_4_1 - p_0_1_1 >= 0 
e_0_2_4_1 - p_0_3_0 >= 0 
e_0_2_4_1 - y_0_2_4_1 >= 0 

x_0_3_0_0 + p_0_2_0 + p_0_4_0 + y_0_3_0_0 - 2e_0_3_0_0 >= 0 
2e_0_3_0_0 - x_0_2_0_0 - p_4_0_0 - p_3_0_0 - y_0_3_0_0 >= 0 

e_0_3_0_0 - x_0_3_0_0 >= 0 
e_0_3_0_0 - p_0_2_0 >= 0 
e_0_3_0_0 - p_0_4_4 >= 0 
e_0_3_0_0 - y_0_3_0_0 >= 0 

x_0_3_1_0 + p_0_2_0 + p_0_4_0 + y_0_3_1_0 - 2e_0_3_1_0 >= 0 
2e_0_3_1_0 - x_0_2_0_0 - p_4_0_0 - p_3_1_0 - y_0_3_1_0 >= 0 

e_0_3_1_0 - x_0_3_1_0 >= 0 
e_0_3_1_0 - p_0_2_0 >= 0 
e_0_3_1_0 - p_0_4_4 >= 0 
e_0_3_1_0 - y_0_3_1_0 >= 0 

x_0_3_2_0 + p_0_2_0 + p_0_4_0 + y_0_3_2_0 - 2e_0_3_2_0 >= 0 
2e_0_3_2_0 - x_0_2_0_0 - p_4_0_0 - p_3_2_0 - y_0_3_2_0 >= 0 

e_0_3_2_0 - x_0_3_2_0 >= 0 
e_0_3_2_0 - p_0_2_0 >= 0 
e_0_3_2_0 - p_0_4_4 >= 0 
e_0_3_2_0 - y_0_3_2_0 >= 0 

x_0_3_3_0 + p_0_2_0 + p_0_4_0 + y_0_3_3_0 - 2e_0_3_3_0 >= 0 
2e_0_3_3_0 - x_0_2_0_0 - p_4_0_0 - p_3_3_0 - y_0_3_3_0 >= 0 

e_0_3_3_0 - x_0_3_3_0 >= 0 
e_0_3_3_0 - p_0_2_0 >= 0 
e_0_3_3_0 - p_0_4_4 >= 0 
e_0_3_3_0 - y_0_3_3_0 >= 0 

x_0_3_4_0 + p_0_2_0 + p_0_4_0 + y_0_3_4_0 - 2e_0_3_4_0 >= 0 
2e_0_3_4_0 - x_0_2_0_0 - p_4_0_0 - p_3_4_0 - y_0_3_4_0 >= 0 

e_0_3_4_0 - x_0_3_4_0 >= 0 
e_0_3_4_0 - p_0_2_0 >= 0 
e_0_3_4_0 - p_0_4_4 >= 0 
e_0_3_4_0 - y_0_3_4_0 >= 0 

x_0_3_0_1 + p_0_2_1 + p_0_4_1 + y_0_3_0_1 - 2e_0_3_0_1 >= 0 
2e_0_3_0_1 - x_0_2_1_0 - p_4_1_0 - p_3_0_1 - y_0_3_0_1 >= 0 

e_0_3_0_1 - x_0_3_0_1 >= 0 
e_0_3_0_1 - p_0_2_1 >= 0 
e_0_3_0_1 - p_0_4_0 >= 0 
e_0_3_0_1 - y_0_3_0_1 >= 0 

x_0_3_1_1 + p_0_2_1 + p_0_4_1 + y_0_3_1_1 - 2e_0_3_1_1 >= 0 
2e_0_3_1_1 - x_0_2_1_0 - p_4_1_0 - p_3_1_1 - y_0_3_1_1 >= 0 

e_0_3_1_1 - x_0_3_1_1 >= 0 
e_0_3_1_1 - p_0_2_1 >= 0 
e_0_3_1_1 - p_0_4_0 >= 0 
e_0_3_1_1 - y_0_3_1_1 >= 0 

x_0_3_2_1 + p_0_2_1 + p_0_4_1 + y_0_3_2_1 - 2e_0_3_2_1 >= 0 
2e_0_3_2_1 - x_0_2_1_0 - p_4_1_0 - p_3_2_1 - y_0_3_2_1 >= 0 

e_0_3_2_1 - x_0_3_2_1 >= 0 
e_0_3_2_1 - p_0_2_1 >= 0 
e_0_3_2_1 - p_0_4_0 >= 0 
e_0_3_2_1 - y_0_3_2_1 >= 0 

x_0_3_3_1 + p_0_2_1 + p_0_4_1 + y_0_3_3_1 - 2e_0_3_3_1 >= 0 
2e_0_3_3_1 - x_0_2_1_0 - p_4_1_0 - p_3_3_1 - y_0_3_3_1 >= 0 

e_0_3_3_1 - x_0_3_3_1 >= 0 
e_0_3_3_1 - p_0_2_1 >= 0 
e_0_3_3_1 - p_0_4_0 >= 0 
e_0_3_3_1 - y_0_3_3_1 >= 0 

x_0_3_4_1 + p_0_2_1 + p_0_4_1 + y_0_3_4_1 - 2e_0_3_4_1 >= 0 
2e_0_3_4_1 - x_0_2_1_0 - p_4_1_0 - p_3_4_1 - y_0_3_4_1 >= 0 

e_0_3_4_1 - x_0_3_4_1 >= 0 
e_0_3_4_1 - p_0_2_1 >= 0 
e_0_3_4_1 - p_0_4_0 >= 0 
e_0_3_4_1 - y_0_3_4_1 >= 0 

x_0_4_0_0 + p_0_3_0 + p_0_0_0 + y_0_4_0_0 - 2e_0_4_0_0 >= 0 
2e_0_4_0_0 - x_0_3_0_0 - p_0_0_0 - p_4_0_0 - y_0_4_0_0 >= 0 

e_0_4_0_0 - x_0_4_0_0 >= 0 
e_0_4_0_0 - p_0_3_0 >= 0 
e_0_4_0_0 - p_0_0_4 >= 0 
e_0_4_0_0 - y_0_4_0_0 >= 0 

x_0_4_1_0 + p_0_3_0 + p_0_0_0 + y_0_4_1_0 - 2e_0_4_1_0 >= 0 
2e_0_4_1_0 - x_0_3_0_0 - p_0_0_0 - p_4_1_0 - y_0_4_1_0 >= 0 

e_0_4_1_0 - x_0_4_1_0 >= 0 
e_0_4_1_0 - p_0_3_0 >= 0 
e_0_4_1_0 - p_0_0_4 >= 0 
e_0_4_1_0 - y_0_4_1_0 >= 0 

x_0_4_2_0 + p_0_3_0 + p_0_0_0 + y_0_4_2_0 - 2e_0_4_2_0 >= 0 
2e_0_4_2_0 - x_0_3_0_0 - p_0_0_0 - p_4_2_0 - y_0_4_2_0 >= 0 

e_0_4_2_0 - x_0_4_2_0 >= 0 
e_0_4_2_0 - p_0_3_0 >= 0 
e_0_4_2_0 - p_0_0_4 >= 0 
e_0_4_2_0 - y_0_4_2_0 >= 0 

x_0_4_3_0 + p_0_3_0 + p_0_0_0 + y_0_4_3_0 - 2e_0_4_3_0 >= 0 
2e_0_4_3_0 - x_0_3_0_0 - p_0_0_0 - p_4_3_0 - y_0_4_3_0 >= 0 

e_0_4_3_0 - x_0_4_3_0 >= 0 
e_0_4_3_0 - p_0_3_0 >= 0 
e_0_4_3_0 - p_0_0_4 >= 0 
e_0_4_3_0 - y_0_4_3_0 >= 0 

x_0_4_4_0 + p_0_3_0 + p_0_0_0 + y_0_4_4_0 - 2e_0_4_4_0 >= 0 
2e_0_4_4_0 - x_0_3_0_0 - p_0_0_0 - p_4_4_0 - y_0_4_4_0 >= 0 

e_0_4_4_0 - x_0_4_4_0 >= 0 
e_0_4_4_0 - p_0_3_0 >= 0 
e_0_4_4_0 - p_0_0_4 >= 0 
e_0_4_4_0 - y_0_4_4_0 >= 0 

x_0_4_0_1 + p_0_3_1 + p_0_0_1 + y_0_4_0_1 - 2e_0_4_0_1 >= 0 
2e_0_4_0_1 - x_0_3_1_0 - p_0_1_0 - p_4_0_1 - y_0_4_0_1 >= 0 

e_0_4_0_1 - x_0_4_0_1 >= 0 
e_0_4_0_1 - p_0_3_1 >= 0 
e_0_4_0_1 - p_0_0_0 >= 0 
e_0_4_0_1 - y_0_4_0_1 >= 0 

x_0_4_1_1 + p_0_3_1 + p_0_0_1 + y_0_4_1_1 - 2e_0_4_1_1 >= 0 
2e_0_4_1_1 - x_0_3_1_0 - p_0_1_0 - p_4_1_1 - y_0_4_1_1 >= 0 

e_0_4_1_1 - x_0_4_1_1 >= 0 
e_0_4_1_1 - p_0_3_1 >= 0 
e_0_4_1_1 - p_0_0_0 >= 0 
e_0_4_1_1 - y_0_4_1_1 >= 0 

x_0_4_2_1 + p_0_3_1 + p_0_0_1 + y_0_4_2_1 - 2e_0_4_2_1 >= 0 
2e_0_4_2_1 - x_0_3_1_0 - p_0_1_0 - p_4_2_1 - y_0_4_2_1 >= 0 

e_0_4_2_1 - x_0_4_2_1 >= 0 
e_0_4_2_1 - p_0_3_1 >= 0 
e_0_4_2_1 - p_0_0_0 >= 0 
e_0_4_2_1 - y_0_4_2_1 >= 0 

x_0_4_3_1 + p_0_3_1 + p_0_0_1 + y_0_4_3_1 - 2e_0_4_3_1 >= 0 
2e_0_4_3_1 - x_0_3_1_0 - p_0_1_0 - p_4_3_1 - y_0_4_3_1 >= 0 

e_0_4_3_1 - x_0_4_3_1 >= 0 
e_0_4_3_1 - p_0_3_1 >= 0 
e_0_4_3_1 - p_0_0_0 >= 0 
e_0_4_3_1 - y_0_4_3_1 >= 0 

x_0_4_4_1 + p_0_3_1 + p_0_0_1 + y_0_4_4_1 - 2e_0_4_4_1 >= 0 
2e_0_4_4_1 - x_0_3_1_0 - p_0_1_0 - p_4_4_1 - y_0_4_4_1 >= 0 

e_0_4_4_1 - x_0_4_4_1 >= 0 
e_0_4_4_1 - p_0_3_1 >= 0 
e_0_4_4_1 - p_0_0_0 >= 0 
e_0_4_4_1 - y_0_4_4_1 >= 0 

A_0_0_0 - y_0_0_0_0 >= 0 
A_0_0_0 - y_0_1_1_0 >= 0 
A_0_0_0 - y_0_2_2_1 >= 0 
A_0_0_0 - y_0_3_3_1 >= 0 
A_0_0_0 - y_0_4_4_0 >= 0 
A_0_0_1 - y_0_0_0_1 >= 0 
A_0_0_1 - y_0_1_1_1 >= 0 
A_0_0_1 - y_0_2_2_0 >= 0 
A_0_0_1 - y_0_3_3_0 >= 0 
A_0_0_1 - y_0_4_4_1 >= 0 
A_0_1_0 - y_0_3_0_0 >= 0 
A_0_1_0 - y_0_4_1_0 >= 0 
A_0_1_0 - y_0_0_2_1 >= 0 
A_0_1_0 - y_0_1_3_1 >= 0 
A_0_1_0 - y_0_2_4_1 >= 0 
A_0_1_1 - y_0_3_0_1 >= 0 
A_0_1_1 - y_0_4_1_1 >= 0 
A_0_1_1 - y_0_0_2_0 >= 0 
A_0_1_1 - y_0_1_3_0 >= 0 
A_0_1_1 - y_0_2_4_0 >= 0 
A_0_2_0 - y_0_1_0_1 >= 0 
A_0_2_0 - y_0_2_1_0 >= 0 
A_0_2_0 - y_0_3_2_1 >= 0 
A_0_2_0 - y_0_4_3_0 >= 0 
A_0_2_0 - y_0_0_4_0 >= 0 
A_0_2_1 - y_0_1_0_0 >= 0 
A_0_2_1 - y_0_2_1_1 >= 0 
A_0_2_1 - y_0_3_2_0 >= 0 
A_0_2_1 - y_0_4_3_1 >= 0 
A_0_2_1 - y_0_0_4_1 >= 0 
A_0_3_0 - y_0_4_0_1 >= 0 
A_0_3_0 - y_0_0_1_0 >= 0 
A_0_3_0 - y_0_1_2_0 >= 0 
A_0_3_0 - y_0_2_3_1 >= 0 
A_0_3_0 - y_0_3_4_0 >= 0 
A_0_3_1 - y_0_4_0_0 >= 0 
A_0_3_1 - y_0_0_1_1 >= 0 
A_0_3_1 - y_0_1_2_1 >= 0 
A_0_3_1 - y_0_2_3_0 >= 0 
A_0_3_1 - y_0_3_4_1 >= 0 
A_0_4_0 - y_0_2_0_0 >= 0 
A_0_4_0 - y_0_3_1_1 >= 0 
A_0_4_0 - y_0_4_2_1 >= 0 
A_0_4_0 - y_0_0_3_1 >= 0 
A_0_4_0 - y_0_1_4_0 >= 0 
A_0_4_1 - y_0_2_0_1 >= 0 
A_0_4_1 - y_0_3_1_0 >= 0 
A_0_4_1 - y_0_4_2_0 >= 0 
A_0_4_1 - y_0_0_3_0 >= 0 
A_0_4_1 - y_0_1_4_1 >= 0 
y_0_0_0_0 + y_0_1_1_0 + y_0_2_2_1 + y_0_3_3_1 + y_0_4_4_0 - A_0_0_0 >= 0 
y_0_0_0_1 + y_0_1_1_1 + y_0_2_2_0 + y_0_3_3_0 + y_0_4_4_1 - A_0_0_1 >= 0 
y_0_3_0_0 + y_0_4_1_0 + y_0_0_2_1 + y_0_1_3_1 + y_0_2_4_1 - A_0_1_0 >= 0 
y_0_3_0_1 + y_0_4_1_1 + y_0_0_2_0 + y_0_1_3_0 + y_0_2_4_0 - A_0_1_1 >= 0 
y_0_1_0_1 + y_0_2_1_0 + y_0_3_2_1 + y_0_4_3_0 + y_0_0_4_0 - A_0_2_0 >= 0 
y_0_1_0_0 + y_0_2_1_1 + y_0_3_2_0 + y_0_4_3_1 + y_0_0_4_1 - A_0_2_1 >= 0 
y_0_4_0_1 + y_0_0_1_0 + y_0_1_2_0 + y_0_2_3_1 + y_0_3_4_0 - A_0_3_0 >= 0 
y_0_4_0_0 + y_0_0_1_1 + y_0_1_2_1 + y_0_2_3_0 + y_0_3_4_1 - A_0_3_1 >= 0 
y_0_2_0_0 + y_0_3_1_1 + y_0_4_2_1 + y_0_0_3_1 + y_0_1_4_0 - A_0_4_0 >= 0 
y_0_2_0_1 + y_0_3_1_0 + y_0_4_2_0 + y_0_0_3_0 + y_0_1_4_1 - A_0_4_1 >= 0 
5 z_0_0_0_0 + 5 z_0_1_0_0 + 5 z_0_2_0_0 + 5 z_0_3_0_0 + 5 z_0_4_0_0 - y_0_0_0_0 - y_0_1_1_0 - y_0_2_2_1 - y_0_3_3_1 - y_0_4_4_0 >= 0 
5 y_0_0_0_0 + 5 y_0_1_1_0 + 5 y_0_2_2_1 + 5 y_0_3_3_1 + 5 y_0_4_4_0 - z_0_0_0_0 - z_0_1_0_0 - z_0_2_0_0 - z_0_3_0_0 - z_0_4_0_0 >= 0 
5 z_0_0_0_1 + 5 z_0_1_0_1 + 5 z_0_2_0_1 + 5 z_0_3_0_1 + 5 z_0_4_0_1 - y_0_0_0_1 - y_0_1_1_1 - y_0_2_2_0 - y_0_3_3_0 - y_0_4_4_1 >= 0 
5 y_0_0_0_1 + 5 y_0_1_1_1 + 5 y_0_2_2_0 + 5 y_0_3_3_0 + 5 y_0_4_4_1 - z_0_0_0_1 - z_0_1_0_1 - z_0_2_0_1 - z_0_3_0_1 - z_0_4_0_1 >= 0 
5 z_0_0_1_0 + 5 z_0_1_1_0 + 5 z_0_2_1_0 + 5 z_0_3_1_0 + 5 z_0_4_1_0 - y_0_0_3_0 - y_0_1_4_0 - y_0_2_0_1 - y_0_3_1_1 - y_0_4_2_1 >= 0 
5 y_0_0_3_0 + 5 y_0_1_4_0 + 5 y_0_2_0_1 + 5 y_0_3_1_1 + 5 y_0_4_2_1 - z_0_0_1_0 - z_0_1_1_0 - z_0_2_1_0 - z_0_3_1_0 - z_0_4_1_0 >= 0 
5 z_0_0_1_1 + 5 z_0_1_1_1 + 5 z_0_2_1_1 + 5 z_0_3_1_1 + 5 z_0_4_1_1 - y_0_0_3_1 - y_0_1_4_1 - y_0_2_0_0 - y_0_3_1_0 - y_0_4_2_0 >= 0 
5 y_0_0_3_1 + 5 y_0_1_4_1 + 5 y_0_2_0_0 + 5 y_0_3_1_0 + 5 y_0_4_2_0 - z_0_0_1_1 - z_0_1_1_1 - z_0_2_1_1 - z_0_3_1_1 - z_0_4_1_1 >= 0 
5 z_0_0_2_0 + 5 z_0_1_2_0 + 5 z_0_2_2_0 + 5 z_0_3_2_0 + 5 z_0_4_2_0 - y_0_0_1_1 - y_0_1_2_0 - y_0_2_3_1 - y_0_3_4_0 - y_0_4_0_0 >= 0 
5 y_0_0_1_1 + 5 y_0_1_2_0 + 5 y_0_2_3_1 + 5 y_0_3_4_0 + 5 y_0_4_0_0 - z_0_0_2_0 - z_0_1_2_0 - z_0_2_2_0 - z_0_3_2_0 - z_0_4_2_0 >= 0 
5 z_0_0_2_1 + 5 z_0_1_2_1 + 5 z_0_2_2_1 + 5 z_0_3_2_1 + 5 z_0_4_2_1 - y_0_0_1_0 - y_0_1_2_1 - y_0_2_3_0 - y_0_3_4_1 - y_0_4_0_1 >= 0 
5 y_0_0_1_0 + 5 y_0_1_2_1 + 5 y_0_2_3_0 + 5 y_0_3_4_1 + 5 y_0_4_0_1 - z_0_0_2_1 - z_0_1_2_1 - z_0_2_2_1 - z_0_3_2_1 - z_0_4_2_1 >= 0 
5 z_0_0_3_0 + 5 z_0_1_3_0 + 5 z_0_2_3_0 + 5 z_0_3_3_0 + 5 z_0_4_3_0 - y_0_0_4_1 - y_0_1_0_0 - y_0_2_1_0 - y_0_3_2_1 - y_0_4_3_0 >= 0 
5 y_0_0_4_1 + 5 y_0_1_0_0 + 5 y_0_2_1_0 + 5 y_0_3_2_1 + 5 y_0_4_3_0 - z_0_0_3_0 - z_0_1_3_0 - z_0_2_3_0 - z_0_3_3_0 - z_0_4_3_0 >= 0 
5 z_0_0_3_1 + 5 z_0_1_3_1 + 5 z_0_2_3_1 + 5 z_0_3_3_1 + 5 z_0_4_3_1 - y_0_0_4_0 - y_0_1_0_1 - y_0_2_1_1 - y_0_3_2_0 - y_0_4_3_1 >= 0 
5 y_0_0_4_0 + 5 y_0_1_0_1 + 5 y_0_2_1_1 + 5 y_0_3_2_0 + 5 y_0_4_3_1 - z_0_0_3_1 - z_0_1_3_1 - z_0_2_3_1 - z_0_3_3_1 - z_0_4_3_1 >= 0 
5 z_0_0_4_0 + 5 z_0_1_4_0 + 5 z_0_2_4_0 + 5 z_0_3_4_0 + 5 z_0_4_4_0 - y_0_0_2_0 - y_0_1_3_1 - y_0_2_4_1 - y_0_3_0_1 - y_0_4_1_0 >= 0 
5 y_0_0_2_0 + 5 y_0_1_3_1 + 5 y_0_2_4_1 + 5 y_0_3_0_1 + 5 y_0_4_1_0 - z_0_0_4_0 - z_0_1_4_0 - z_0_2_4_0 - z_0_3_4_0 - z_0_4_4_0 >= 0 
5 z_0_0_4_1 + 5 z_0_1_4_1 + 5 z_0_2_4_1 + 5 z_0_3_4_1 + 5 z_0_4_4_1 - y_0_0_2_1 - y_0_1_3_0 - y_0_2_4_0 - y_0_3_0_0 - y_0_4_1_1 >= 0 
5 y_0_0_2_1 + 5 y_0_1_3_0 + 5 y_0_2_4_0 + 5 y_0_3_0_0 + 5 y_0_4_1_1 - z_0_0_4_1 - z_0_1_4_1 - z_0_2_4_1 - z_0_3_4_1 - z_0_4_4_1 >= 0 
y_0_0_0_0 + y_0_1_1_0 + y_0_2_2_1 + y_0_3_3_1 + y_0_4_4_0 + z_0_0_0_0 + z_0_1_0_0 + z_0_2_0_0 + z_0_3_0_0 + z_0_4_0_0 - 2 f_0_0_0 >= 0 
f_0_0_0 - z_0_0_0_0 >= 0
f_0_0_0 - y_0_0_0_0 >= 0
f_0_0_0 - z_0_1_0_0 >= 0
f_0_0_0 - y_0_1_1_0 >= 0
f_0_0_0 - z_0_2_0_0 >= 0
f_0_0_0 - y_0_2_2_1 >= 0
f_0_0_0 - z_0_3_0_0 >= 0
f_0_0_0 - y_0_3_3_1 >= 0
f_0_0_0 - z_0_4_0_0 >= 0
f_0_0_0 - y_0_4_4_0 >= 0
y_0_0_3_0 + y_0_1_4_0 + y_0_2_0_1 + y_0_3_1_1 + y_0_4_2_1 + z_0_0_1_0 + z_0_1_1_0 + z_0_2_1_0 + z_0_3_1_0 + z_0_4_1_0 - 2 f_0_1_0 >= 0 
f_0_1_0 - z_0_0_1_0 >= 0
f_0_1_0 - y_0_3_0_0 >= 0
f_0_1_0 - z_0_1_1_0 >= 0
f_0_1_0 - y_0_4_1_0 >= 0
f_0_1_0 - z_0_2_1_0 >= 0
f_0_1_0 - y_0_0_2_1 >= 0
f_0_1_0 - z_0_3_1_0 >= 0
f_0_1_0 - y_0_1_3_1 >= 0
f_0_1_0 - z_0_4_1_0 >= 0
f_0_1_0 - y_0_2_4_1 >= 0
y_0_0_1_1 + y_0_1_2_0 + y_0_2_3_1 + y_0_3_4_0 + y_0_4_0_0 + z_0_0_2_0 + z_0_1_2_0 + z_0_2_2_0 + z_0_3_2_0 + z_0_4_2_0 - 2 f_0_2_0 >= 0 
f_0_2_0 - z_0_0_2_0 >= 0
f_0_2_0 - y_0_1_0_1 >= 0
f_0_2_0 - z_0_1_2_0 >= 0
f_0_2_0 - y_0_2_1_0 >= 0
f_0_2_0 - z_0_2_2_0 >= 0
f_0_2_0 - y_0_3_2_1 >= 0
f_0_2_0 - z_0_3_2_0 >= 0
f_0_2_0 - y_0_4_3_0 >= 0
f_0_2_0 - z_0_4_2_0 >= 0
f_0_2_0 - y_0_0_4_0 >= 0
y_0_0_4_1 + y_0_1_0_0 + y_0_2_1_0 + y_0_3_2_1 + y_0_4_3_0 + z_0_0_3_0 + z_0_1_3_0 + z_0_2_3_0 + z_0_3_3_0 + z_0_4_3_0 - 2 f_0_3_0 >= 0 
f_0_3_0 - z_0_0_3_0 >= 0
f_0_3_0 - y_0_4_0_1 >= 0
f_0_3_0 - z_0_1_3_0 >= 0
f_0_3_0 - y_0_0_1_0 >= 0
f_0_3_0 - z_0_2_3_0 >= 0
f_0_3_0 - y_0_1_2_0 >= 0
f_0_3_0 - z_0_3_3_0 >= 0
f_0_3_0 - y_0_2_3_1 >= 0
f_0_3_0 - z_0_4_3_0 >= 0
f_0_3_0 - y_0_3_4_0 >= 0
y_0_0_2_0 + y_0_1_3_1 + y_0_2_4_1 + y_0_3_0_1 + y_0_4_1_0 + z_0_0_4_0 + z_0_1_4_0 + z_0_2_4_0 + z_0_3_4_0 + z_0_4_4_0 - 2 f_0_4_0 >= 0 
f_0_4_0 - z_0_0_4_0 >= 0
f_0_4_0 - y_0_2_0_0 >= 0
f_0_4_0 - z_0_1_4_0 >= 0
f_0_4_0 - y_0_3_1_1 >= 0
f_0_4_0 - z_0_2_4_0 >= 0
f_0_4_0 - y_0_4_2_1 >= 0
f_0_4_0 - z_0_3_4_0 >= 0
f_0_4_0 - y_0_0_3_1 >= 0
f_0_4_0 - z_0_4_4_0 >= 0
f_0_4_0 - y_0_1_4_0 >= 0
y_0_0_0_1 + y_0_1_1_1 + y_0_2_2_0 + y_0_3_3_0 + y_0_4_4_1 + z_0_0_0_1 + z_0_1_0_1 + z_0_2_0_1 + z_0_3_0_1 + z_0_4_0_1 - 2 f_0_0_1 >= 0 
f_0_0_1 - z_0_0_0_1 >= 0
f_0_0_1 - y_0_0_0_1 >= 0
f_0_0_1 - z_0_1_0_1 >= 0
f_0_0_1 - y_0_1_1_1 >= 0
f_0_0_1 - z_0_2_0_1 >= 0
f_0_0_1 - y_0_2_2_0 >= 0
f_0_0_1 - z_0_3_0_1 >= 0
f_0_0_1 - y_0_3_3_0 >= 0
f_0_0_1 - z_0_4_0_1 >= 0
f_0_0_1 - y_0_4_4_1 >= 0
y_0_0_3_1 + y_0_1_4_1 + y_0_2_0_0 + y_0_3_1_0 + y_0_4_2_0 + z_0_0_1_1 + z_0_1_1_1 + z_0_2_1_1 + z_0_3_1_1 + z_0_4_1_1 - 2 f_0_1_1 >= 0 
f_0_1_1 - z_0_0_1_1 >= 0
f_0_1_1 - y_0_3_0_1 >= 0
f_0_1_1 - z_0_1_1_1 >= 0
f_0_1_1 - y_0_4_1_1 >= 0
f_0_1_1 - z_0_2_1_1 >= 0
f_0_1_1 - y_0_0_2_0 >= 0
f_0_1_1 - z_0_3_1_1 >= 0
f_0_1_1 - y_0_1_3_0 >= 0
f_0_1_1 - z_0_4_1_1 >= 0
f_0_1_1 - y_0_2_4_0 >= 0
y_0_0_1_0 + y_0_1_2_1 + y_0_2_3_0 + y_0_3_4_1 + y_0_4_0_1 + z_0_0_2_1 + z_0_1_2_1 + z_0_2_2_1 + z_0_3_2_1 + z_0_4_2_1 - 2 f_0_2_1 >= 0 
f_0_2_1 - z_0_0_2_1 >= 0
f_0_2_1 - y_0_1_0_0 >= 0
f_0_2_1 - z_0_1_2_1 >= 0
f_0_2_1 - y_0_2_1_1 >= 0
f_0_2_1 - z_0_2_2_1 >= 0
f_0_2_1 - y_0_3_2_0 >= 0
f_0_2_1 - z_0_3_2_1 >= 0
f_0_2_1 - y_0_4_3_1 >= 0
f_0_2_1 - z_0_4_2_1 >= 0
f_0_2_1 - y_0_0_4_1 >= 0
y_0_0_4_0 + y_0_1_0_1 + y_0_2_1_1 + y_0_3_2_0 + y_0_4_3_1 + z_0_0_3_1 + z_0_1_3_1 + z_0_2_3_1 + z_0_3_3_1 + z_0_4_3_1 - 2 f_0_3_1 >= 0 
f_0_3_1 - z_0_0_3_1 >= 0
f_0_3_1 - y_0_4_0_0 >= 0
f_0_3_1 - z_0_1_3_1 >= 0
f_0_3_1 - y_0_0_1_1 >= 0
f_0_3_1 - z_0_2_3_1 >= 0
f_0_3_1 - y_0_1_2_1 >= 0
f_0_3_1 - z_0_3_3_1 >= 0
f_0_3_1 - y_0_2_3_0 >= 0
f_0_3_1 - z_0_4_3_1 >= 0
f_0_3_1 - y_0_3_4_1 >= 0
y_0_0_2_1 + y_0_1_3_0 + y_0_2_4_0 + y_0_3_0_0 + y_0_4_1_1 + z_0_0_4_1 + z_0_1_4_1 + z_0_2_4_1 + z_0_3_4_1 + z_0_4_4_1 - 2 f_0_4_1 >= 0 
f_0_4_1 - z_0_0_4_1 >= 0
f_0_4_1 - y_0_2_0_1 >= 0
f_0_4_1 - z_0_1_4_1 >= 0
f_0_4_1 - y_0_3_1_0 >= 0
f_0_4_1 - z_0_2_4_1 >= 0
f_0_4_1 - y_0_4_2_0 >= 0
f_0_4_1 - z_0_3_4_1 >= 0
f_0_4_1 - y_0_0_3_0 >= 0
f_0_4_1 - z_0_4_4_1 >= 0
f_0_4_1 - y_0_1_4_1 >= 0

Binary
x_0_0_0_0
x_0_0_0_1
x_0_0_1_0
x_0_0_1_1
x_0_0_2_0
x_0_0_2_1
x_0_0_3_0
x_0_0_3_1
x_0_0_4_0
x_0_0_4_1
x_0_1_0_0
x_0_1_0_1
x_0_1_1_0
x_0_1_1_1
x_0_1_2_0
x_0_1_2_1
x_0_1_3_0
x_0_1_3_1
x_0_1_4_0
x_0_1_4_1
x_0_2_0_0
x_0_2_0_1
x_0_2_1_0
x_0_2_1_1
x_0_2_2_0
x_0_2_2_1
x_0_2_3_0
x_0_2_3_1
x_0_2_4_0
x_0_2_4_1
x_0_3_0_0
x_0_3_0_1
x_0_3_1_0
x_0_3_1_1
x_0_3_2_0
x_0_3_2_1
x_0_3_3_0
x_0_3_3_1
x_0_3_4_0
x_0_3_4_1
x_0_4_0_0
x_0_4_0_1
x_0_4_1_0
x_0_4_1_1
x_0_4_2_0
x_0_4_2_1
x_0_4_3_0
x_0_4_3_1
x_0_4_4_0
x_0_4_4_1
p_0_0_0
p_0_0_1
p_0_1_0
p_0_1_1
p_0_2_0
p_0_2_1
p_0_3_0
p_0_3_1
p_0_4_0
p_0_4_1
f_0_0_0
f_0_0_1
f_0_1_0
f_0_1_1
f_0_2_0
f_0_2_1
f_0_3_0
f_0_3_1
f_0_4_0
f_0_4_1
y_0_0_0_0
y_0_0_0_1
y_0_0_1_0
y_0_0_1_1
y_0_0_2_0
y_0_0_2_1
y_0_0_3_0
y_0_0_3_1
y_0_0_4_0
y_0_0_4_1
y_0_1_0_0
y_0_1_0_1
y_0_1_1_0
y_0_1_1_1
y_0_1_2_0
y_0_1_2_1
y_0_1_3_0
y_0_1_3_1
y_0_1_4_0
y_0_1_4_1
y_0_2_0_0
y_0_2_0_1
y_0_2_1_0
y_0_2_1_1
y_0_2_2_0
y_0_2_2_1
y_0_2_3_0
y_0_2_3_1
y_0_2_4_0
y_0_2_4_1
y_0_3_0_0
y_0_3_0_1
y_0_3_1_0
y_0_3_1_1
y_0_3_2_0
y_0_3_2_1
y_0_3_3_0
y_0_3_3_1
y_0_3_4_0
y_0_3_4_1
y_0_4_0_0
y_0_4_0_1
y_0_4_1_0
y_0_4_1_1
y_0_4_2_0
y_0_4_2_1
y_0_4_3_0
y_0_4_3_1
y_0_4_4_0
y_0_4_4_1
z_0_0_0_0
z_0_0_0_1
z_0_0_1_0
z_0_0_1_1
z_0_0_2_0
z_0_0_2_1
z_0_0_3_0
z_0_0_3_1
z_0_0_4_0
z_0_0_4_1
z_0_1_0_0
z_0_1_0_1
z_0_1_1_0
z_0_1_1_1
z_0_1_2_0
z_0_1_2_1
z_0_1_3_0
z_0_1_3_1
z_0_1_4_0
z_0_1_4_1
z_0_2_0_0
z_0_2_0_1
z_0_2_1_0
z_0_2_1_1
z_0_2_2_0
z_0_2_2_1
z_0_2_3_0
z_0_2_3_1
z_0_2_4_0
z_0_2_4_1
z_0_3_0_0
z_0_3_0_1
z_0_3_1_0
z_0_3_1_1
z_0_3_2_0
z_0_3_2_1
z_0_3_3_0
z_0_3_3_1
z_0_3_4_0
z_0_3_4_1
z_0_4_0_0
z_0_4_0_1
z_0_4_1_0
z_0_4_1_1
z_0_4_2_0
z_0_4_2_1
z_0_4_3_0
z_0_4_3_1
z_0_4_4_0
z_0_4_4_1

General
e_0_0_0_0
e_0_0_0_1
e_0_0_1_0
e_0_0_1_1
e_0_0_2_0
e_0_0_2_1
e_0_0_3_0
e_0_0_3_1
e_0_0_4_0
e_0_0_4_1
e_0_1_0_0
e_0_1_0_1
e_0_1_1_0
e_0_1_1_1
e_0_1_2_0
e_0_1_2_1
e_0_1_3_0
e_0_1_3_1
e_0_1_4_0
e_0_1_4_1
e_0_2_0_0
e_0_2_0_1
e_0_2_1_0
e_0_2_1_1
e_0_2_2_0
e_0_2_2_1
e_0_2_3_0
e_0_2_3_1
e_0_2_4_0
e_0_2_4_1
e_0_3_0_0
e_0_3_0_1
e_0_3_1_0
e_0_3_1_1
e_0_3_2_0
e_0_3_2_1
e_0_3_3_0
e_0_3_3_1
e_0_3_4_0
e_0_3_4_1
e_0_4_0_0
e_0_4_0_1
e_0_4_1_0
e_0_4_1_1
e_0_4_2_0
e_0_4_2_1
e_0_4_3_0
e_0_4_3_1
e_0_4_4_0
e_0_4_4_1
d_0_0_0
d_0_0_1
d_0_1_0
d_0_1_1
d_0_2_0
d_0_2_1
d_0_3_0
d_0_3_1
d_0_4_0
d_0_4_1
